10	5
0	3	5	1	2
1	3	4	9	10
2	0
3	2	10	7
4	1	8
5	1	3
6	1	4
7	1	6
8	1	11
9	1	11
10	1	11
11	0
0	0	0	0	0	0	0
1	6	3	5	0	5	3
2	3	4	0	2	3	4
3	1	2	0	0	3	2
4	2	3	3	3	2	1
5	6	2	1	3	2	2
6	4	4	2	1	3	5
7	3	3	4	3	1	5
8	4	4	0	0	5	5
9	3	3	5	0	0	0
10	2	0	0	5	1	0
11	0	0	0	0	0	0
5	5	5	6	6
